120
150
55
92
66
36
70
48
20
32
47
36
43
78
45
68
78
98
84
46
20
36
90
53
77
32
27
59
91
27
92
57
22
66
37
47
92
27
84
81
79
31
53
95
68
82
66
92
29
55
66
84
53
22
68
40
31
29
24
74
22
78
68
53
20
29
29
32
60
29
84
53
57
40
64
85
37
84
66
55
95
20
27
29
39
29
44
32
74
38
64
70
79
61
36
53
48
26
68
27
95
92
43
55
55
64
85
55
95
66
38
68
22
60
63
92
87
43
46
48
99
92
